\ENCODING=ISO-8859-1
\Problem name: IloCplex

Minimize
 obj1: x_a_0 + 2 x_a_1 + x_a_2 + 3 x_a_3 + 3 x_a_4 + 2 x_a_5 + x_a_6 + x_a_7
       + x_a_8 + x_a_9 + x_a_10 + 3 x_a_11 + 3 x_a_12 + 2 x_a_13 + 2 x_a_14
       + x_a_15 + 3 x_a_16 + x_a_17 + x_a_18 + x_a_19 + x_a_20 + 3 x_a_21
       + 2 x_a_22 + 3 x_a_23 + x_a_24 + 3 x_a_25 + 2 x_a_26 + x_a_27 + x_a_28
       + 2 x_a_29 + 2 x_a_30 + 2 x_a_31 + 3 x_a_32 + 3 x_a_33 + 2 x_a_34
       + 2 x_a_35 + 3 x_a_36 + x_a_37 + 2 x_a_38 + 3 x_a_39 + 3 x_a_40
       + 3 x_a_41 + 3 x_a_42 + 3 x_a_43 + x_a_44 + x_a_45 + 3 x_a_46 + x_a_47
       + x_a_48 + x_a_49 + 2 x_a_50 + x_a_51 + 2 x_a_52 + 3 x_a_53 + 2 x_a_54
       + 3 x_a_55 + 2 x_a_56 + x_a_57 + 3 x_a_58 + 3 x_a_59 + x_a_60 + x_a_61
       + 2 x_a_62 + 3 x_a_63 + 3 x_a_64 + 2 x_a_65 + 2 x_a_66 + 2 x_a_67
       + 3 x_a_68 + 3 x_a_69 + 3 x_a_70 + 3 x_a_71 + 3 x_a_72 + 2 x_a_73
       + 3 x_a_74 + x_a_75 + 2 x_a_76 + x_a_77 + 2 x_a_78 + 2 x_a_79 + x_a_80
       + 3 x_a_81 + 2 x_a_82 + 2 x_a_83 + 2 x_a_84 + 3 x_a_85 + 3 x_a_86
       + 3 x_a_87 + 2 x_a_88 + 3 x_a_89 + 2 x_a_90 + 2 x_a_91 + 3 x_a_92
       + 2 x_a_93 + 3 x_a_94 + x_a_95 + 3 x_a_96 + 2 x_a_97 + x_a_98 + 2 x_a_99
       + 2 x_a_100 + 3 x_a_101 + x_a_102 + x_a_103 + 3 x_a_104 + 2 x_a_105
       + 2 x_a_106 + 3 x_a_107 + 2 x_a_108 + 2 x_a_109 + 3 x_a_110 + x_a_111
       + 3 x_a_112 + 2 x_a_113 + x_a_114 + 3 x_a_115 + 2 x_a_116 + 2 x_a_117
       + x_a_118 + x_a_119 + 3 x_a_120 + 3 x_a_121 + 2 x_a_122 + 3 x_a_123
       + 2 x_a_124 + 3 x_a_125 + 2 x_a_126 + 3 x_a_127 + 2 x_a_128 + x_a_129
       + x_a_130 + 3 x_a_131 + 2 x_a_132 + 2 x_a_133 + x_a_134 + 3 x_a_135
       + x_a_136 + x_a_137 + 2 x_a_138 + x_a_139 + 3 x_a_140 + 3 x_a_141
       + 3 x_a_142 + 3 x_a_143 + x_a_144 + x_a_145 + x_a_146 + 3 x_a_147
       + 3 x_a_148 + 3 x_a_149 + 2 x_a_150 + x_a_151 + 2 x_a_152 + x_a_153
       + 2 x_a_154 + 3 x_a_155 + x_a_156 + 3 x_a_157 + x_a_158 + x_a_159
       + 2 x_a_160 + x_a_161 + 3 x_a_162 + 2 x_a_163 + 3 x_a_164 + 2 x_a_165
       + 2 x_a_166 + 3 x_a_167 + 3 x_a_168 + 3 x_a_169 + x_a_170 + x_a_171
       + x_a_172 + 2 x_a_173 + x_a_174 + x_a_175 + 3 x_a_176 + x_a_177
       + 2 x_a_178 + x_a_179 + x_a_180 + x_a_181 + 3 x_a_182 + 3 x_a_183
       + 3 x_a_184 + 2 x_a_185 + 2 x_a_186 + 2 x_a_187 + 2 x_a_188 + 2 x_a_189
       + 3 x_a_190 + 3 x_a_191 + 2 x_a_192 + 3 x_a_193 + x_a_194 + 2 x_a_195
       + x_a_196 + x_a_197 + x_a_198 + 3 x_a_199 + 3 x_a_200 + 3 x_a_201
       + 3 x_a_202 + 2 x_a_203 + 3 x_a_204 + x_a_205 + 3 x_a_206 + 3 x_a_207
       + 3 x_a_208 + 2 x_a_209 + x_a_210 + 3 x_a_211 + x_a_212 + 3 x_a_213
       + 3 x_a_214 + 3 x_a_215 + 2 x_a_216 + x_a_217 + 2 x_a_218 + 3 x_a_219
       + x_a_220 + x_a_221 + 3 x_a_222 + 3 x_a_223 + 3 x_a_224 + 3 x_a_225
       + x_a_226 + 1000000000 x_a_227 + 1000000000 x_a_228 + 1000000000 x_a_229
       + 1000000000 x_a_230 + 1000000000 x_a_231 + 1000000000 x_a_232
       + 1000000000 x_a_233 + 1000000000 x_a_234 + 1000000000 x_a_235
       + 1000000000 x_a_236 + 1000000000 x_a_237 + 1000000000 x_a_238
       + 1000000000 x_a_239 + 1000000000 x_a_240 + 1000000000 x_a_241
       + 1000000000 x_a_242 + 10000 x_a_243
Subject To
 c1:   y_a_227 + y_a_228 + y_a_229 + y_a_230 + y_a_231 + y_a_232 + y_a_233
       + y_a_234 <= 407.4
 c2:   - y_a_229 + y_a_0 + y_a_1 + y_a_2 + y_a_3 + y_a_4 + y_a_5 + y_a_6
       + y_a_7 + y_a_8 + y_a_9 + y_a_10 + y_a_11 + y_a_12  = 0
 c3:   - y_a_0 + y_a_13 + y_a_14 + y_a_15 + y_a_16 + y_a_17 + y_a_18 + y_a_19
       + y_a_20 + y_a_21 + y_a_22 + y_a_23  = 0
 c4:   - y_a_1 + y_a_24 + y_a_25 + y_a_26 + y_a_27 + y_a_28 + y_a_29 + y_a_30
       + y_a_31 + y_a_32 + y_a_33 + y_a_34  = 0
 c5:   - y_a_13 - y_a_24 + y_a_35 + y_a_36 + y_a_37 + y_a_38 + y_a_39 + y_a_40
       + y_a_41 + y_a_42 + y_a_43 + y_a_44 + y_a_45 + y_a_235  = 0
 c6:   - y_a_234 - y_a_2 - y_a_14 - y_a_35 + y_a_46 + y_a_47 + y_a_48 + y_a_49
       + y_a_50 + y_a_51 + y_a_52  = 0
 c7:   - y_a_3 - y_a_15 + y_a_53 + y_a_54 + y_a_55 + y_a_56 + y_a_57 + y_a_58
       + y_a_59 + y_a_60 + y_a_61 + y_a_62 + y_a_63 + y_a_64  = 0
 c8:   - y_a_232 - y_a_25 - y_a_46 - y_a_53 + y_a_65 + y_a_66 + y_a_67 + y_a_68
       + y_a_69 + y_a_70 + y_a_71 + y_a_72 + y_a_73  = 0
 c9:   - y_a_4 - y_a_16 - y_a_26 + y_a_74 + y_a_75 + y_a_76 + y_a_77 + y_a_78
       + y_a_79 + y_a_80 + y_a_81 + y_a_82 + y_a_83 + y_a_84  = 0
 c10:  - y_a_230 - y_a_17 - y_a_27 - y_a_74 + y_a_85 + y_a_86 + y_a_87 + y_a_88
       + y_a_89 + y_a_90 + y_a_91 + y_a_92 + y_a_93  = 0
 c11:  - y_a_47 - y_a_75 + y_a_94 + y_a_95 + y_a_96 + y_a_97 + y_a_98 + y_a_99
       + y_a_100  = 0
 c12:  - y_a_36 - y_a_54 - y_a_94 + y_a_101 + y_a_102 + y_a_103 + y_a_104
       + y_a_105 + y_a_106 + y_a_107 + y_a_108 + y_a_109 + y_a_110  = 0
 c13:  - y_a_5 - y_a_37 - y_a_55 - y_a_76 - y_a_101 + y_a_111 + y_a_112
       + y_a_113 + y_a_114 + y_a_115 + y_a_237  = 0
 c14:  - y_a_38 - y_a_65 - y_a_85 + y_a_116 + y_a_117 + y_a_118 + y_a_119
       + y_a_120 + y_a_121 + y_a_122 + y_a_123 + y_a_124 + y_a_125  = 0
 c15:  - y_a_48 - y_a_56 - y_a_111 + y_a_126 + y_a_127 + y_a_128 + y_a_129
       + y_a_130 + y_a_131 + y_a_132 + y_a_133 + y_a_242  = 0
 c16:  - y_a_227 - y_a_28 - y_a_39 - y_a_66 - y_a_77 - y_a_86 - y_a_95
       - y_a_102 - y_a_116 + y_a_134 + y_a_135 + y_a_136 + y_a_137 + y_a_138
       + y_a_139 + y_a_140 + y_a_141  = 0
 c17:  - y_a_78 - y_a_96 - y_a_103 - y_a_126 - y_a_134 + y_a_142 + y_a_143
       + y_a_144 + y_a_145 + y_a_146 + y_a_147 + y_a_148 + y_a_149 + y_a_240
        = 0
 c18:  - y_a_57 - y_a_104 - y_a_127 + y_a_150 + y_a_151 + y_a_152  = 0
 c19:  - y_a_6 - y_a_58 - y_a_79 - y_a_117 + y_a_153 + y_a_154 + y_a_155
       + y_a_156 + y_a_157 + y_a_158 + y_a_159 + y_a_160  = 0
 c20:  - y_a_7 - y_a_118 - y_a_128 - y_a_142 - y_a_150 + y_a_161 + y_a_162
       + y_a_163 + y_a_164 + y_a_165 + y_a_166 + y_a_167  = 0
 c21:  - y_a_8 - y_a_18 - y_a_49 - y_a_97 - y_a_119 - y_a_143 - y_a_153
       - y_a_161 + y_a_168 + y_a_169 + y_a_170 + y_a_171 + y_a_172 + y_a_173
       + y_a_174  = 0
 c22:  - y_a_40 - y_a_59 - y_a_80 - y_a_87 - y_a_144 - y_a_154 + y_a_175
       + y_a_176 + y_a_177 + y_a_178 + y_a_179 + y_a_180  = 0
 c23:  - y_a_60 - y_a_88 - y_a_105 - y_a_120 - y_a_135 - y_a_155 - y_a_162
       + y_a_181 + y_a_182 + y_a_183 + y_a_184 + y_a_185 + y_a_186  = 0
 c24:  - y_a_19 - y_a_106 - y_a_156 - y_a_163 - y_a_181 + y_a_187 + y_a_188
       + y_a_189  = 0
 c25:  - y_a_9 - y_a_67 - y_a_107 - y_a_112 - y_a_129 - y_a_157 - y_a_168
       + y_a_190 + y_a_191 + y_a_192 + y_a_193 + y_a_194 + y_a_195 + y_a_196
        = 0
 c26:  - y_a_29 - y_a_50 - y_a_61 - y_a_81 - y_a_113 - y_a_121 - y_a_175
       - y_a_187 - y_a_190 + y_a_197 + y_a_198 + y_a_199 + y_a_200  = 0
 c27:  - y_a_20 - y_a_82 - y_a_130 - y_a_136 - y_a_158 - y_a_169 - y_a_176
       - y_a_182 + y_a_201 + y_a_202 + y_a_203  = 0
 c28:  - y_a_10 - y_a_21 - y_a_89 - y_a_114 - y_a_145 - y_a_151 - y_a_177
       - y_a_197 + y_a_204 + y_a_205 + y_a_206 + y_a_207 + y_a_236  = 0
 c29:  - y_a_233 - y_a_22 - y_a_30 - y_a_90 - y_a_98 - y_a_108 - y_a_122
       - y_a_137 - y_a_146 - y_a_164 - y_a_170 - y_a_178 - y_a_198 + y_a_208
       + y_a_209 + y_a_210 + y_a_211  = 0
 c30:  - y_a_11 - y_a_31 - y_a_51 - y_a_83 - y_a_91 - y_a_147 - y_a_171
       - y_a_191 - y_a_204 - y_a_208 + y_a_212 + y_a_213  = 0
 c31:  - y_a_68 - y_a_109 - y_a_123 - y_a_131 - y_a_138 - y_a_183 + y_a_214
        = 0
 c32:  - y_a_231 - y_a_41 - y_a_69 - y_a_99 - y_a_110 - y_a_124 - y_a_132
       - y_a_148 - y_a_172 - y_a_184 - y_a_192 - y_a_209 + y_a_215 + y_a_216
       + y_a_217  = 0
 c33:  - y_a_228 - y_a_32 - y_a_42 - y_a_62 - y_a_70 - y_a_92 - y_a_193
       - y_a_212 - y_a_215 + y_a_218 + y_a_219  = 0
 c34:  - y_a_33 - y_a_100 - y_a_165 - y_a_179 - y_a_188 - y_a_194 - y_a_205
       + y_a_220 + y_a_221 + y_a_222  = 0
 c35:  - y_a_43 - y_a_52 - y_a_63 - y_a_71 - y_a_139 - y_a_149 - y_a_173
       - y_a_195 - y_a_216 - y_a_220 + y_a_223  = 0
 c36:  - y_a_23 - y_a_72 - y_a_125 - y_a_133 - y_a_140 - y_a_152 - y_a_159
       - y_a_166 - y_a_174 - y_a_199 - y_a_201 - y_a_213 - y_a_221 + y_a_224
       + y_a_238 + y_a_241  = 0
 c37:  - y_a_44 - y_a_141 - y_a_185 - y_a_202 - y_a_206 - y_a_210 - y_a_218
       + y_a_225 + y_a_239  = 0
 c38:  - y_a_45 - y_a_73 - y_a_84 - y_a_93 - y_a_160 - y_a_180 - y_a_186
       - y_a_189 - y_a_200 - y_a_211 - y_a_219 - y_a_224 + y_a_226  = 0
 c39:  - y_a_12 - y_a_34 - y_a_64 - y_a_115 - y_a_167 - y_a_196 - y_a_203
       - y_a_207 - y_a_214 - y_a_217 - y_a_222 - y_a_223 - y_a_225 - y_a_226
        = 0
 c40:  y_a_227 + y_a_228 + y_a_229 + y_a_230 + y_a_231 + y_a_232 + y_a_233
       + y_a_234 - y_a_243  = 0
 c41:  - y_a_235 - y_a_237 - y_a_242 - y_a_240 - y_a_236 - y_a_238 - y_a_241
       - y_a_239 + y_a_243  = 0
 c42:  y_a_0 + 34 x_a_0 <= 34
 c43:  y_a_1 + 33 x_a_1 <= 33
 c44:  y_a_2 + 47 x_a_2 <= 47
 c45:  y_a_3 + 33 x_a_3 <= 33
 c46:  y_a_4 + 43 x_a_4 <= 43
 c47:  y_a_5 + 25 x_a_5 <= 25
 c48:  y_a_6 + 39 x_a_6 <= 39
 c49:  y_a_7 + 49 x_a_7 <= 49
 c50:  y_a_8 + 22 x_a_8 <= 22
 c51:  y_a_9 + 11 x_a_9 <= 11
 c52:  y_a_10 + 10 x_a_10 <= 10
 c53:  y_a_11 + 5 x_a_11 <= 5
 c54:  y_a_12 + 31 x_a_12 <= 31
 c55:  y_a_13 + 28 x_a_13 <= 28
 c56:  y_a_14 + 15 x_a_14 <= 15
 c57:  y_a_15 + 5 x_a_15 <= 5
 c58:  y_a_16 + 47 x_a_16 <= 47
 c59:  y_a_17 + 21 x_a_17 <= 21
 c60:  y_a_18 + 43 x_a_18 <= 43
 c61:  y_a_19 + 15 x_a_19 <= 15
 c62:  y_a_20 + 34 x_a_20 <= 34
 c63:  y_a_21 + 25 x_a_21 <= 25
 c64:  y_a_22 + 33 x_a_22 <= 33
 c65:  y_a_23 + 48 x_a_23 <= 48
 c66:  y_a_24 + 8 x_a_24 <= 8
 c67:  y_a_25 + 33 x_a_25 <= 33
 c68:  y_a_26 + 22 x_a_26 <= 22
 c69:  y_a_27 + 37 x_a_27 <= 37
 c70:  y_a_28 + 34 x_a_28 <= 34
 c71:  y_a_29 + x_a_29 <= 1
 c72:  y_a_30 + 31 x_a_30 <= 31
 c73:  y_a_31 + 10 x_a_31 <= 10
 c74:  y_a_32 + 43 x_a_32 <= 43
 c75:  y_a_33 + 42 x_a_33 <= 42
 c76:  y_a_34 + 49 x_a_34 <= 49
 c77:  y_a_35 + 5 x_a_35 <= 5
 c78:  y_a_36 + 42 x_a_36 <= 42
 c79:  y_a_37 + 38 x_a_37 <= 38
 c80:  y_a_38 + 27 x_a_38 <= 27
 c81:  y_a_39 + 14 x_a_39 <= 14
 c82:  y_a_40 + 4 x_a_40 <= 4
 c83:  y_a_41 + 30 x_a_41 <= 30
 c84:  y_a_42 + 17 x_a_42 <= 17
 c85:  y_a_43 + 26 x_a_43 <= 26
 c86:  y_a_44 + 47 x_a_44 <= 47
 c87:  y_a_45 + 12 x_a_45 <= 12
 c88:  y_a_46 + 34 x_a_46 <= 34
 c89:  y_a_47 + 16 x_a_47 <= 16
 c90:  y_a_48 + 30 x_a_48 <= 30
 c91:  y_a_49 + 40 x_a_49 <= 40
 c92:  y_a_50 + 2 x_a_50 <= 2
 c93:  y_a_51 + 9 x_a_51 <= 9
 c94:  y_a_52 + 15 x_a_52 <= 15
 c95:  y_a_53 + 35 x_a_53 <= 35
 c96:  y_a_54 + 23 x_a_54 <= 23
 c97:  y_a_55 + 15 x_a_55 <= 15
 c98:  y_a_56 + 49 x_a_56 <= 49
 c99:  y_a_57 + 12 x_a_57 <= 12
 c100: y_a_58 + 47 x_a_58 <= 47
 c101: y_a_59 + 2 x_a_59 <= 2
 c102: y_a_60 + 23 x_a_60 <= 23
 c103: y_a_61 + 35 x_a_61 <= 35
 c104: y_a_62 + 25 x_a_62 <= 25
 c105: y_a_63 + 4 x_a_63 <= 4
 c106: y_a_64 + 21 x_a_64 <= 21
 c107: y_a_65 + 25 x_a_65 <= 25
 c108: y_a_66 + 11 x_a_66 <= 11
 c109: y_a_67 + 2 x_a_67 <= 2
 c110: y_a_68 + 42 x_a_68 <= 42
 c111: y_a_69 + 32 x_a_69 <= 32
 c112: y_a_70 + 30 x_a_70 <= 30
 c113: y_a_71 + 18 x_a_71 <= 18
 c114: y_a_72 + 45 x_a_72 <= 45
 c115: y_a_73 + 15 x_a_73 <= 15
 c116: y_a_74 + 29 x_a_74 <= 29
 c117: y_a_75 + 35 x_a_75 <= 35
 c118: y_a_76 + 6 x_a_76 <= 6
 c119: y_a_77 + 40 x_a_77 <= 40
 c120: y_a_78 + 16 x_a_78 <= 16
 c121: y_a_79 + 29 x_a_79 <= 29
 c122: y_a_80 + 23 x_a_80 <= 23
 c123: y_a_81 + 14 x_a_81 <= 14
 c124: y_a_82 + 35 x_a_82 <= 35
 c125: y_a_83 + 22 x_a_83 <= 22
 c126: y_a_84 + 17 x_a_84 <= 17
 c127: y_a_85 + 33 x_a_85 <= 33
 c128: y_a_86 + 38 x_a_86 <= 38
 c129: y_a_87 + 42 x_a_87 <= 42
 c130: y_a_88 + 35 x_a_88 <= 35
 c131: y_a_89 + 33 x_a_89 <= 33
 c132: y_a_90 + 17 x_a_90 <= 17
 c133: y_a_91 + 6 x_a_91 <= 6
 c134: y_a_92 + 42 x_a_92 <= 42
 c135: y_a_93 + 18 x_a_93 <= 18
 c136: y_a_94 + 32 x_a_94 <= 32
 c137: y_a_95 + 41 x_a_95 <= 41
 c138: y_a_96 + x_a_96 <= 1
 c139: y_a_97 + 30 x_a_97 <= 30
 c140: y_a_98 + 46 x_a_98 <= 46
 c141: y_a_99 + 39 x_a_99 <= 39
 c142: y_a_100 + 11 x_a_100 <= 11
 c143: y_a_101 + 13 x_a_101 <= 13
 c144: y_a_102 + 19 x_a_102 <= 19
 c145: y_a_103 + 3 x_a_103 <= 3
 c146: y_a_104 + 33 x_a_104 <= 33
 c147: y_a_105 + 5 x_a_105 <= 5
 c148: y_a_106 + 39 x_a_106 <= 39
 c149: y_a_107 + 22 x_a_107 <= 22
 c150: y_a_108 + 30 x_a_108 <= 30
 c151: y_a_109 + 12 x_a_109 <= 12
 c152: y_a_110 + 14 x_a_110 <= 14
 c153: y_a_111 + 18 x_a_111 <= 18
 c154: y_a_112 + 22 x_a_112 <= 22
 c155: y_a_113 + 44 x_a_113 <= 44
 c156: y_a_114 + 33 x_a_114 <= 33
 c157: y_a_115 + 35 x_a_115 <= 35
 c158: y_a_116 + 7 x_a_116 <= 7
 c159: y_a_117 + 45 x_a_117 <= 45
 c160: y_a_118 + 28 x_a_118 <= 28
 c161: y_a_119 + 36 x_a_119 <= 36
 c162: y_a_120 + 24 x_a_120 <= 24
 c163: y_a_121 + 37 x_a_121 <= 37
 c164: y_a_122 + 43 x_a_122 <= 43
 c165: y_a_123 + 22 x_a_123 <= 22
 c166: y_a_124 + 22 x_a_124 <= 22
 c167: y_a_125 + 22 x_a_125 <= 22
 c168: y_a_126 + 9 x_a_126 <= 9
 c169: y_a_127 + 6 x_a_127 <= 6
 c170: y_a_128 + 21 x_a_128 <= 21
 c171: y_a_129 + 22 x_a_129 <= 22
 c172: y_a_130 + x_a_130 <= 1
 c173: y_a_131 + 29 x_a_131 <= 29
 c174: y_a_132 + 28 x_a_132 <= 28
 c175: y_a_133 + 5 x_a_133 <= 5
 c176: y_a_134 + 22 x_a_134 <= 22
 c177: y_a_135 + 21 x_a_135 <= 21
 c178: y_a_136 + 47 x_a_136 <= 47
 c179: y_a_137 + 2 x_a_137 <= 2
 c180: y_a_138 + 25 x_a_138 <= 25
 c181: y_a_139 + 32 x_a_139 <= 32
 c182: y_a_140 + 30 x_a_140 <= 30
 c183: y_a_141 + 46 x_a_141 <= 46
 c184: y_a_142 + 4 x_a_142 <= 4
 c185: y_a_143 + 46 x_a_143 <= 46
 c186: y_a_144 + 24 x_a_144 <= 24
 c187: y_a_145 + 49 x_a_145 <= 49
 c188: y_a_146 + 6 x_a_146 <= 6
 c189: y_a_147 + 4 x_a_147 <= 4
 c190: y_a_148 + 14 x_a_148 <= 14
 c191: y_a_149 + 24 x_a_149 <= 24
 c192: y_a_150 + 2 x_a_150 <= 2
 c193: y_a_151 + 12 x_a_151 <= 12
 c194: y_a_152 + 42 x_a_152 <= 42
 c195: y_a_153 + 42 x_a_153 <= 42
 c196: y_a_154 + 36 x_a_154 <= 36
 c197: y_a_155 + 29 x_a_155 <= 29
 c198: y_a_156 + 22 x_a_156 <= 22
 c199: y_a_157 + 11 x_a_157 <= 11
 c200: y_a_158 + 19 x_a_158 <= 19
 c201: y_a_159 + 47 x_a_159 <= 47
 c202: y_a_160 + 49 x_a_160 <= 49
 c203: y_a_161 + 43 x_a_161 <= 43
 c204: y_a_162 + 29 x_a_162 <= 29
 c205: y_a_163 + 48 x_a_163 <= 48
 c206: y_a_164 + 33 x_a_164 <= 33
 c207: y_a_165 + x_a_165 <= 1
 c208: y_a_166 + 4 x_a_166 <= 4
 c209: y_a_167 + 39 x_a_167 <= 39
 c210: y_a_168 + 45 x_a_168 <= 45
 c211: y_a_169 + 24 x_a_169 <= 24
 c212: y_a_170 + 48 x_a_170 <= 48
 c213: y_a_171 + 39 x_a_171 <= 39
 c214: y_a_172 + 47 x_a_172 <= 47
 c215: y_a_173 + 24 x_a_173 <= 24
 c216: y_a_174 + 19 x_a_174 <= 19
 c217: y_a_175 + 38 x_a_175 <= 38
 c218: y_a_176 + 5 x_a_176 <= 5
 c219: y_a_177 + 20 x_a_177 <= 20
 c220: y_a_178 + 6 x_a_178 <= 6
 c221: y_a_179 + 9 x_a_179 <= 9
 c222: y_a_180 + 10 x_a_180 <= 10
 c223: y_a_181 + x_a_181 <= 1
 c224: y_a_182 + 4 x_a_182 <= 4
 c225: y_a_183 + 45 x_a_183 <= 45
 c226: y_a_184 + 33 x_a_184 <= 33
 c227: y_a_185 + 40 x_a_185 <= 40
 c228: y_a_186 + 46 x_a_186 <= 46
 c229: y_a_187 + 19 x_a_187 <= 19
 c230: y_a_188 + 21 x_a_188 <= 21
 c231: y_a_189 + 30 x_a_189 <= 30
 c232: y_a_190 + 30 x_a_190 <= 30
 c233: y_a_191 + 30 x_a_191 <= 30
 c234: y_a_192 + 23 x_a_192 <= 23
 c235: y_a_193 + 23 x_a_193 <= 23
 c236: y_a_194 + 18 x_a_194 <= 18
 c237: y_a_195 + 49 x_a_195 <= 49
 c238: y_a_196 + 48 x_a_196 <= 48
 c239: y_a_197 + 13 x_a_197 <= 13
 c240: y_a_198 + 39 x_a_198 <= 39
 c241: y_a_199 + 39 x_a_199 <= 39
 c242: y_a_200 + 14 x_a_200 <= 14
 c243: y_a_201 + 11 x_a_201 <= 11
 c244: y_a_202 + 37 x_a_202 <= 37
 c245: y_a_203 + 34 x_a_203 <= 34
 c246: y_a_204 + 2 x_a_204 <= 2
 c247: y_a_205 + 17 x_a_205 <= 17
 c248: y_a_206 + 15 x_a_206 <= 15
 c249: y_a_207 + 27 x_a_207 <= 27
 c250: y_a_208 + 45 x_a_208 <= 45
 c251: y_a_209 + 45 x_a_209 <= 45
 c252: y_a_210 + 6 x_a_210 <= 6
 c253: y_a_211 + 29 x_a_211 <= 29
 c254: y_a_212 + 16 x_a_212 <= 16
 c255: y_a_213 + 19 x_a_213 <= 19
 c256: y_a_214 + 4 x_a_214 <= 4
 c257: y_a_215 + 46 x_a_215 <= 46
 c258: y_a_216 + 7 x_a_216 <= 7
 c259: y_a_217 + 19 x_a_217 <= 19
 c260: y_a_218 + 4 x_a_218 <= 4
 c261: y_a_219 + 32 x_a_219 <= 32
 c262: y_a_220 + 28 x_a_220 <= 28
 c263: y_a_221 + 27 x_a_221 <= 27
 c264: y_a_222 + 9 x_a_222 <= 9
 c265: y_a_223 + 37 x_a_223 <= 37
 c266: y_a_224 + 39 x_a_224 <= 39
 c267: y_a_225 + 32 x_a_225 <= 32
 c268: y_a_226 + 20 x_a_226 <= 20
 c269: y_a_227 + 50000000 x_a_227 <= 50000000
 c270: y_a_228 + 50000000 x_a_228 <= 50000000
 c271: y_a_229 + 50000000 x_a_229 <= 50000000
 c272: y_a_230 + 50000000 x_a_230 <= 50000000
 c273: y_a_231 + 50000000 x_a_231 <= 50000000
 c274: y_a_232 + 50000000 x_a_232 <= 50000000
 c275: y_a_233 + 50000000 x_a_233 <= 50000000
 c276: y_a_234 + 50000000 x_a_234 <= 50000000
 c277: y_a_235 + 50000000 x_a_235 <= 50000000
 c278: y_a_236 + 50000000 x_a_236 <= 50000000
 c279: y_a_237 + 50000000 x_a_237 <= 50000000
 c280: y_a_238 + 50000000 x_a_238 <= 50000000
 c281: y_a_239 + 50000000 x_a_239 <= 50000000
 c282: y_a_240 + 50000000 x_a_240 <= 50000000
 c283: y_a_241 + 50000000 x_a_241 <= 50000000
 c284: y_a_242 + 50000000 x_a_242 <= 50000000
 c285: y_a_243 + 10000 x_a_243 <= 10000
Bounds
 0 <= x_a_0 <= 1
 0 <= x_a_1 <= 1
 0 <= x_a_2 <= 1
 0 <= x_a_3 <= 1
 0 <= x_a_4 <= 1
 0 <= x_a_5 <= 1
 0 <= x_a_6 <= 1
 0 <= x_a_7 <= 1
 0 <= x_a_8 <= 1
 0 <= x_a_9 <= 1
 0 <= x_a_10 <= 1
 0 <= x_a_11 <= 1
 0 <= x_a_12 <= 1
 0 <= x_a_13 <= 1
 0 <= x_a_14 <= 1
 0 <= x_a_15 <= 1
 0 <= x_a_16 <= 1
 0 <= x_a_17 <= 1
 0 <= x_a_18 <= 1
 0 <= x_a_19 <= 1
 0 <= x_a_20 <= 1
 0 <= x_a_21 <= 1
 0 <= x_a_22 <= 1
 0 <= x_a_23 <= 1
 0 <= x_a_24 <= 1
 0 <= x_a_25 <= 1
 0 <= x_a_26 <= 1
 0 <= x_a_27 <= 1
 0 <= x_a_28 <= 1
 0 <= x_a_29 <= 1
 0 <= x_a_30 <= 1
 0 <= x_a_31 <= 1
 0 <= x_a_32 <= 1
 0 <= x_a_33 <= 1
 0 <= x_a_34 <= 1
 0 <= x_a_35 <= 1
 0 <= x_a_36 <= 1
 0 <= x_a_37 <= 1
 0 <= x_a_38 <= 1
 0 <= x_a_39 <= 1
 0 <= x_a_40 <= 1
 0 <= x_a_41 <= 1
 0 <= x_a_42 <= 1
 0 <= x_a_43 <= 1
 0 <= x_a_44 <= 1
 0 <= x_a_45 <= 1
 0 <= x_a_46 <= 1
 0 <= x_a_47 <= 1
 0 <= x_a_48 <= 1
 0 <= x_a_49 <= 1
 0 <= x_a_50 <= 1
 0 <= x_a_51 <= 1
 0 <= x_a_52 <= 1
 0 <= x_a_53 <= 1
 0 <= x_a_54 <= 1
 0 <= x_a_55 <= 1
 0 <= x_a_56 <= 1
 0 <= x_a_57 <= 1
 0 <= x_a_58 <= 1
 0 <= x_a_59 <= 1
 0 <= x_a_60 <= 1
 0 <= x_a_61 <= 1
 0 <= x_a_62 <= 1
 0 <= x_a_63 <= 1
 0 <= x_a_64 <= 1
 0 <= x_a_65 <= 1
 0 <= x_a_66 <= 1
 0 <= x_a_67 <= 1
 0 <= x_a_68 <= 1
 0 <= x_a_69 <= 1
 0 <= x_a_70 <= 1
 0 <= x_a_71 <= 1
 0 <= x_a_72 <= 1
 0 <= x_a_73 <= 1
 0 <= x_a_74 <= 1
 0 <= x_a_75 <= 1
 0 <= x_a_76 <= 1
 0 <= x_a_77 <= 1
 0 <= x_a_78 <= 1
 0 <= x_a_79 <= 1
 0 <= x_a_80 <= 1
 0 <= x_a_81 <= 1
 0 <= x_a_82 <= 1
 0 <= x_a_83 <= 1
 0 <= x_a_84 <= 1
 0 <= x_a_85 <= 1
 0 <= x_a_86 <= 1
 0 <= x_a_87 <= 1
 0 <= x_a_88 <= 1
 0 <= x_a_89 <= 1
 0 <= x_a_90 <= 1
 0 <= x_a_91 <= 1
 0 <= x_a_92 <= 1
 0 <= x_a_93 <= 1
 0 <= x_a_94 <= 1
 0 <= x_a_95 <= 1
 0 <= x_a_96 <= 1
 0 <= x_a_97 <= 1
 0 <= x_a_98 <= 1
 0 <= x_a_99 <= 1
 0 <= x_a_100 <= 1
 0 <= x_a_101 <= 1
 0 <= x_a_102 <= 1
 0 <= x_a_103 <= 1
 0 <= x_a_104 <= 1
 0 <= x_a_105 <= 1
 0 <= x_a_106 <= 1
 0 <= x_a_107 <= 1
 0 <= x_a_108 <= 1
 0 <= x_a_109 <= 1
 0 <= x_a_110 <= 1
 0 <= x_a_111 <= 1
 0 <= x_a_112 <= 1
 0 <= x_a_113 <= 1
 0 <= x_a_114 <= 1
 0 <= x_a_115 <= 1
 0 <= x_a_116 <= 1
 0 <= x_a_117 <= 1
 0 <= x_a_118 <= 1
 0 <= x_a_119 <= 1
 0 <= x_a_120 <= 1
 0 <= x_a_121 <= 1
 0 <= x_a_122 <= 1
 0 <= x_a_123 <= 1
 0 <= x_a_124 <= 1
 0 <= x_a_125 <= 1
 0 <= x_a_126 <= 1
 0 <= x_a_127 <= 1
 0 <= x_a_128 <= 1
 0 <= x_a_129 <= 1
 0 <= x_a_130 <= 1
 0 <= x_a_131 <= 1
 0 <= x_a_132 <= 1
 0 <= x_a_133 <= 1
 0 <= x_a_134 <= 1
 0 <= x_a_135 <= 1
 0 <= x_a_136 <= 1
 0 <= x_a_137 <= 1
 0 <= x_a_138 <= 1
 0 <= x_a_139 <= 1
 0 <= x_a_140 <= 1
 0 <= x_a_141 <= 1
 0 <= x_a_142 <= 1
 0 <= x_a_143 <= 1
 0 <= x_a_144 <= 1
 0 <= x_a_145 <= 1
 0 <= x_a_146 <= 1
 0 <= x_a_147 <= 1
 0 <= x_a_148 <= 1
 0 <= x_a_149 <= 1
 0 <= x_a_150 <= 1
 0 <= x_a_151 <= 1
 0 <= x_a_152 <= 1
 0 <= x_a_153 <= 1
 0 <= x_a_154 <= 1
 0 <= x_a_155 <= 1
 0 <= x_a_156 <= 1
 0 <= x_a_157 <= 1
 0 <= x_a_158 <= 1
 0 <= x_a_159 <= 1
 0 <= x_a_160 <= 1
 0 <= x_a_161 <= 1
 0 <= x_a_162 <= 1
 0 <= x_a_163 <= 1
 0 <= x_a_164 <= 1
 0 <= x_a_165 <= 1
 0 <= x_a_166 <= 1
 0 <= x_a_167 <= 1
 0 <= x_a_168 <= 1
 0 <= x_a_169 <= 1
 0 <= x_a_170 <= 1
 0 <= x_a_171 <= 1
 0 <= x_a_172 <= 1
 0 <= x_a_173 <= 1
 0 <= x_a_174 <= 1
 0 <= x_a_175 <= 1
 0 <= x_a_176 <= 1
 0 <= x_a_177 <= 1
 0 <= x_a_178 <= 1
 0 <= x_a_179 <= 1
 0 <= x_a_180 <= 1
 0 <= x_a_181 <= 1
 0 <= x_a_182 <= 1
 0 <= x_a_183 <= 1
 0 <= x_a_184 <= 1
 0 <= x_a_185 <= 1
 0 <= x_a_186 <= 1
 0 <= x_a_187 <= 1
 0 <= x_a_188 <= 1
 0 <= x_a_189 <= 1
 0 <= x_a_190 <= 1
 0 <= x_a_191 <= 1
 0 <= x_a_192 <= 1
 0 <= x_a_193 <= 1
 0 <= x_a_194 <= 1
 0 <= x_a_195 <= 1
 0 <= x_a_196 <= 1
 0 <= x_a_197 <= 1
 0 <= x_a_198 <= 1
 0 <= x_a_199 <= 1
 0 <= x_a_200 <= 1
 0 <= x_a_201 <= 1
 0 <= x_a_202 <= 1
 0 <= x_a_203 <= 1
 0 <= x_a_204 <= 1
 0 <= x_a_205 <= 1
 0 <= x_a_206 <= 1
 0 <= x_a_207 <= 1
 0 <= x_a_208 <= 1
 0 <= x_a_209 <= 1
 0 <= x_a_210 <= 1
 0 <= x_a_211 <= 1
 0 <= x_a_212 <= 1
 0 <= x_a_213 <= 1
 0 <= x_a_214 <= 1
 0 <= x_a_215 <= 1
 0 <= x_a_216 <= 1
 0 <= x_a_217 <= 1
 0 <= x_a_218 <= 1
 0 <= x_a_219 <= 1
 0 <= x_a_220 <= 1
 0 <= x_a_221 <= 1
 0 <= x_a_222 <= 1
 0 <= x_a_223 <= 1
 0 <= x_a_224 <= 1
 0 <= x_a_225 <= 1
 0 <= x_a_226 <= 1
 0 <= x_a_227 <= 1
 0 <= x_a_228 <= 1
 0 <= x_a_229 <= 1
 0 <= x_a_230 <= 1
 0 <= x_a_231 <= 1
 0 <= x_a_232 <= 1
 0 <= x_a_233 <= 1
 0 <= x_a_234 <= 1
 0 <= x_a_235 <= 1
 0 <= x_a_236 <= 1
 0 <= x_a_237 <= 1
 0 <= x_a_238 <= 1
 0 <= x_a_239 <= 1
 0 <= x_a_240 <= 1
 0 <= x_a_241 <= 1
 0 <= x_a_242 <= 1
 0 <= x_a_243 <= 1
Binaries
 x_a_0  x_a_1  x_a_2  x_a_3  x_a_4  x_a_5  x_a_6  x_a_7  x_a_8  x_a_9  x_a_10 
 x_a_11  x_a_12  x_a_13  x_a_14  x_a_15  x_a_16  x_a_17  x_a_18  x_a_19 
 x_a_20  x_a_21  x_a_22  x_a_23  x_a_24  x_a_25  x_a_26  x_a_27  x_a_28 
 x_a_29  x_a_30  x_a_31  x_a_32  x_a_33  x_a_34  x_a_35  x_a_36  x_a_37 
 x_a_38  x_a_39  x_a_40  x_a_41  x_a_42  x_a_43  x_a_44  x_a_45  x_a_46 
 x_a_47  x_a_48  x_a_49  x_a_50  x_a_51  x_a_52  x_a_53  x_a_54  x_a_55 
 x_a_56  x_a_57  x_a_58  x_a_59  x_a_60  x_a_61  x_a_62  x_a_63  x_a_64 
 x_a_65  x_a_66  x_a_67  x_a_68  x_a_69  x_a_70  x_a_71  x_a_72  x_a_73 
 x_a_74  x_a_75  x_a_76  x_a_77  x_a_78  x_a_79  x_a_80  x_a_81  x_a_82 
 x_a_83  x_a_84  x_a_85  x_a_86  x_a_87  x_a_88  x_a_89  x_a_90  x_a_91 
 x_a_92  x_a_93  x_a_94  x_a_95  x_a_96  x_a_97  x_a_98  x_a_99  x_a_100 
 x_a_101  x_a_102  x_a_103  x_a_104  x_a_105  x_a_106  x_a_107  x_a_108 
 x_a_109  x_a_110  x_a_111  x_a_112  x_a_113  x_a_114  x_a_115  x_a_116 
 x_a_117  x_a_118  x_a_119  x_a_120  x_a_121  x_a_122  x_a_123  x_a_124 
 x_a_125  x_a_126  x_a_127  x_a_128  x_a_129  x_a_130  x_a_131  x_a_132 
 x_a_133  x_a_134  x_a_135  x_a_136  x_a_137  x_a_138  x_a_139  x_a_140 
 x_a_141  x_a_142  x_a_143  x_a_144  x_a_145  x_a_146  x_a_147  x_a_148 
 x_a_149  x_a_150  x_a_151  x_a_152  x_a_153  x_a_154  x_a_155  x_a_156 
 x_a_157  x_a_158  x_a_159  x_a_160  x_a_161  x_a_162  x_a_163  x_a_164 
 x_a_165  x_a_166  x_a_167  x_a_168  x_a_169  x_a_170  x_a_171  x_a_172 
 x_a_173  x_a_174  x_a_175  x_a_176  x_a_177  x_a_178  x_a_179  x_a_180 
 x_a_181  x_a_182  x_a_183  x_a_184  x_a_185  x_a_186  x_a_187  x_a_188 
 x_a_189  x_a_190  x_a_191  x_a_192  x_a_193  x_a_194  x_a_195  x_a_196 
 x_a_197  x_a_198  x_a_199  x_a_200  x_a_201  x_a_202  x_a_203  x_a_204 
 x_a_205  x_a_206  x_a_207  x_a_208  x_a_209  x_a_210  x_a_211  x_a_212 
 x_a_213  x_a_214  x_a_215  x_a_216  x_a_217  x_a_218  x_a_219  x_a_220 
 x_a_221  x_a_222  x_a_223  x_a_224  x_a_225  x_a_226  x_a_227  x_a_228 
 x_a_229  x_a_230  x_a_231  x_a_232  x_a_233  x_a_234  x_a_235  x_a_236 
 x_a_237  x_a_238  x_a_239  x_a_240  x_a_241  x_a_242  x_a_243 
End
